NAME : plus/cross shape
COMMENT : plus tsp by warren g. jackson
TYPE : TSP
DIMENSION : 24
EDGE_WEIGHT_TYPE : EUC_2D
NODE_COORD_SECTION
1 20 40
2 25 40
3 30 40
4 30 35
5 30 30
6 35 30
7 40 30
8 40 25
9 40 20
10 35 20
11 30 20
12 30 15
13 30 10
14 25 10
15 20 10
16 20 15
17 20 20
18 15 20
19 10 20
20 10 25
21 10 30
22 15 30
23 20 30
24 20 35
EOF
